jobs  (incl. supersource/sink ):	52
RESOURCES
- renewable                 : 2 R
- nonrenewable              : 2 N
- doubly constrained        : 0 D
************************************************************************
PRECEDENCE RELATIONS:
jobnr.    #modes  #successors   successors
1	1	11		2 3 4 5 6 7 10 11 14 20 23 
2	9	6		21 18 17 12 9 8 
3	9	4		28 16 12 9 
4	9	5		29 27 22 16 13 
5	9	4		27 18 16 13 
6	9	7		36 31 28 26 24 18 15 
7	9	7		37 29 28 25 22 21 19 
8	9	9		44 37 31 29 28 27 26 24 22 
9	9	6		37 36 29 25 22 19 
10	9	4		34 27 21 18 
11	9	6		37 34 31 29 25 19 
12	9	8		44 39 37 35 32 27 24 22 
13	9	8		43 42 37 34 31 30 25 21 
14	9	10		44 43 42 39 37 36 34 31 30 25 
15	9	4		42 41 37 19 
16	9	6		42 34 32 31 26 24 
17	9	7		43 42 41 39 37 27 25 
18	9	6		43 41 37 32 29 25 
19	9	8		51 44 43 39 35 33 32 27 
20	9	6		42 39 36 32 30 24 
21	9	9		51 50 49 44 41 40 39 36 33 
22	9	7		50 49 48 43 42 34 33 
23	9	5		51 49 41 40 29 
24	9	7		51 50 49 48 41 40 33 
25	9	6		51 50 48 40 35 33 
26	9	5		43 40 39 35 33 
27	9	3		40 38 30 
28	9	4		49 42 39 38 
29	9	4		50 46 42 39 
30	9	6		50 49 48 47 46 45 
31	9	4		50 49 45 38 
32	9	2		40 38 
33	9	2		45 38 
34	9	2		41 40 
35	9	3		49 47 45 
36	9	3		48 47 46 
37	9	2		46 40 
38	9	2		47 46 
39	9	2		48 47 
40	9	1		45 
41	9	1		46 
42	9	1		45 
43	9	1		46 
44	9	1		45 
45	9	1		52 
46	9	1		52 
47	9	1		52 
48	9	1		52 
49	9	1		52 
50	9	1		52 
51	9	1		52 
52	1	0		
************************************************************************
REQUESTS/DURATIONS
jobnr.	mode	dur	R1	R2	N1	N2	
------------------------------------------------------------------------
1	1	0	0	0	0	0	
2	1	1	2	1	20	17	
	2	12	2	1	20	15	
	3	14	2	1	17	13	
	4	15	2	1	15	11	
	5	16	2	1	13	9	
	6	20	2	1	11	6	
	7	25	2	1	10	6	
	8	26	2	1	7	3	
	9	30	2	1	7	2	
3	1	2	3	5	23	9	
	2	5	3	4	21	8	
	3	11	3	4	21	7	
	4	13	3	3	19	8	
	5	21	2	3	18	7	
	6	22	2	3	18	6	
	7	23	2	2	16	6	
	8	24	1	2	15	6	
	9	27	1	2	14	6	
4	1	1	5	4	14	27	
	2	4	4	4	13	25	
	3	8	4	4	13	22	
	4	9	3	4	13	21	
	5	10	3	4	12	17	
	6	11	3	4	12	16	
	7	12	3	4	12	11	
	8	20	2	4	12	9	
	9	25	2	4	12	6	
5	1	1	2	1	23	11	
	2	2	2	1	22	10	
	3	3	2	1	22	8	
	4	10	2	1	22	7	
	5	11	2	1	21	6	
	6	17	2	1	21	5	
	7	18	2	1	21	4	
	8	22	2	1	20	4	
	9	29	2	1	20	2	
6	1	5	5	5	5	13	
	2	8	4	4	5	11	
	3	16	3	4	5	11	
	4	19	3	3	5	9	
	5	21	2	3	4	8	
	6	23	2	3	4	6	
	7	24	1	3	4	5	
	8	25	1	2	4	2	
	9	28	1	2	4	1	
7	1	2	2	4	29	27	
	2	3	2	3	25	24	
	3	7	2	3	24	23	
	4	8	2	3	21	20	
	5	9	1	2	20	19	
	6	12	1	2	16	16	
	7	13	1	2	15	15	
	8	14	1	2	10	13	
	9	30	1	2	9	10	
8	1	2	4	4	21	19	
	2	3	4	4	19	19	
	3	8	4	3	19	18	
	4	11	3	3	18	17	
	5	12	3	2	15	14	
	6	16	3	2	15	13	
	7	17	3	1	14	12	
	8	19	2	1	12	11	
	9	20	2	1	12	10	
9	1	7	5	4	17	21	
	2	8	4	3	17	18	
	3	12	3	3	16	14	
	4	17	3	3	14	13	
	5	20	3	3	14	11	
	6	22	2	3	13	9	
	7	23	2	3	12	5	
	8	28	1	3	11	3	
	9	29	1	3	10	1	
10	1	1	5	4	17	25	
	2	2	4	3	17	23	
	3	3	4	3	15	23	
	4	6	4	3	13	20	
	5	7	3	3	13	18	
	6	10	3	3	11	18	
	7	18	3	3	9	15	
	8	20	3	3	8	15	
	9	24	3	3	6	13	
11	1	2	4	4	5	24	
	2	11	3	4	4	22	
	3	12	3	4	3	21	
	4	18	3	3	3	19	
	5	24	3	3	3	16	
	6	25	2	2	2	15	
	7	26	2	1	1	14	
	8	29	2	1	1	12	
	9	30	2	1	1	10	
12	1	4	3	4	25	27	
	2	6	2	3	24	25	
	3	14	2	3	23	25	
	4	15	2	3	23	24	
	5	16	1	3	21	21	
	6	17	1	2	20	19	
	7	19	1	2	20	18	
	8	29	1	2	19	15	
	9	30	1	2	18	15	
13	1	1	4	1	26	6	
	2	2	3	1	24	6	
	3	10	3	1	23	6	
	4	11	3	1	22	6	
	5	20	2	1	19	6	
	6	24	2	1	18	6	
	7	25	2	1	15	6	
	8	27	2	1	13	6	
	9	28	2	1	13	5	
14	1	5	4	5	3	22	
	2	7	3	5	3	21	
	3	11	3	5	3	20	
	4	12	3	5	3	19	
	5	12	2	5	3	21	
	6	20	2	5	2	20	
	7	22	2	5	2	19	
	8	23	2	5	2	18	
	9	26	2	5	2	17	
15	1	2	5	2	9	15	
	2	5	4	2	8	14	
	3	6	4	2	8	13	
	4	15	4	2	6	11	
	5	17	3	1	6	10	
	6	18	3	1	5	10	
	7	19	2	1	3	9	
	8	20	2	1	3	6	
	9	23	2	1	1	5	
16	1	3	1	4	12	14	
	2	7	1	3	12	11	
	3	8	1	3	10	11	
	4	11	1	3	10	8	
	5	14	1	3	9	7	
	6	16	1	2	7	6	
	7	17	1	2	6	5	
	8	26	1	2	5	3	
	9	30	1	2	4	2	
17	1	2	4	4	23	17	
	2	3	4	4	22	17	
	3	4	4	4	19	15	
	4	9	4	3	16	12	
	5	10	4	2	12	9	
	6	13	4	2	11	9	
	7	14	4	2	6	5	
	8	16	4	1	5	4	
	9	26	4	1	3	2	
18	1	3	4	3	16	29	
	2	4	4	2	16	27	
	3	10	4	2	15	27	
	4	18	4	2	14	25	
	5	21	4	1	13	25	
	6	22	4	1	13	23	
	7	24	4	1	12	23	
	8	25	4	1	11	22	
	9	30	4	1	10	21	
19	1	4	2	2	26	25	
	2	12	2	1	24	20	
	3	13	2	1	24	18	
	4	14	2	1	23	17	
	5	20	2	1	22	12	
	6	21	2	1	22	11	
	7	22	2	1	22	7	
	8	27	2	1	21	3	
	9	30	2	1	20	2	
20	1	2	2	4	26	12	
	2	4	1	3	25	12	
	3	5	1	3	25	11	
	4	14	1	3	25	10	
	5	15	1	3	25	9	
	6	16	1	3	24	11	
	7	17	1	3	24	10	
	8	21	1	3	24	9	
	9	26	1	3	24	8	
21	1	1	4	4	19	26	
	2	3	4	4	18	24	
	3	4	4	4	17	23	
	4	19	3	4	15	23	
	5	21	2	4	15	21	
	6	22	2	4	15	19	
	7	25	1	4	14	17	
	8	26	1	4	13	15	
	9	29	1	4	12	15	
22	1	2	3	3	23	17	
	2	5	3	2	22	15	
	3	7	3	2	22	14	
	4	10	3	2	20	14	
	5	14	2	2	20	13	
	6	16	2	2	18	13	
	7	23	1	2	18	12	
	8	25	1	2	17	11	
	9	29	1	2	16	11	
23	1	7	3	4	25	19	
	2	8	2	3	24	18	
	3	9	2	3	23	16	
	4	10	2	2	22	16	
	5	14	1	2	20	15	
	6	15	1	2	19	14	
	7	20	1	2	19	12	
	8	23	1	1	18	11	
	9	25	1	1	17	11	
24	1	5	3	5	14	14	
	2	7	3	4	12	12	
	3	14	3	4	12	11	
	4	15	3	4	10	11	
	5	16	2	3	10	9	
	6	17	2	3	9	8	
	7	18	2	2	7	8	
	8	19	2	2	6	6	
	9	23	2	2	5	6	
25	1	1	3	4	18	29	
	2	2	3	4	17	26	
	3	4	3	3	17	25	
	4	6	3	3	16	23	
	5	7	2	3	15	22	
	6	11	2	2	14	21	
	7	12	2	2	13	18	
	8	23	2	1	11	17	
	9	30	2	1	11	16	
26	1	1	4	4	25	28	
	2	8	4	3	23	26	
	3	9	4	3	19	23	
	4	14	3	3	17	22	
	5	18	3	2	14	18	
	6	20	3	2	12	18	
	7	26	2	1	9	14	
	8	27	2	1	8	14	
	9	28	2	1	5	11	
27	1	7	5	3	22	8	
	2	11	4	3	20	8	
	3	12	3	3	17	8	
	4	13	3	3	14	8	
	5	14	2	2	13	8	
	6	15	2	2	10	7	
	7	23	1	2	8	7	
	8	27	1	2	5	7	
	9	30	1	2	5	6	
28	1	6	4	4	20	19	
	2	13	4	3	19	18	
	3	16	4	3	19	16	
	4	17	3	3	17	15	
	5	18	3	3	16	14	
	6	21	3	3	16	12	
	7	22	2	3	14	11	
	8	23	2	3	14	9	
	9	24	2	3	12	8	
29	1	1	3	4	28	21	
	2	2	2	3	26	17	
	3	8	2	3	26	15	
	4	13	2	3	25	13	
	5	20	2	3	24	12	
	6	21	2	3	24	11	
	7	23	2	3	24	9	
	8	27	2	3	22	6	
	9	30	2	3	22	5	
30	1	2	5	5	25	24	
	2	4	4	4	24	20	
	3	6	4	4	20	17	
	4	15	4	4	18	16	
	5	16	4	4	18	13	
	6	21	3	3	16	8	
	7	22	3	3	13	8	
	8	24	3	3	10	6	
	9	27	3	3	10	1	
31	1	1	5	5	28	14	
	2	2	4	4	26	14	
	3	8	4	4	25	13	
	4	9	4	4	23	12	
	5	12	4	3	21	11	
	6	15	3	3	21	11	
	7	19	3	2	19	10	
	8	23	3	2	18	10	
	9	28	3	2	18	9	
32	1	3	4	4	10	22	
	2	5	4	4	10	21	
	3	6	4	4	10	20	
	4	12	3	4	10	20	
	5	13	3	4	10	19	
	6	17	3	4	10	17	
	7	18	3	4	10	16	
	8	25	2	4	10	16	
	9	26	2	4	10	15	
33	1	8	2	4	5	21	
	2	9	1	4	4	21	
	3	19	1	4	4	20	
	4	20	1	4	4	19	
	5	21	1	4	4	18	
	6	23	1	4	4	17	
	7	24	1	4	4	16	
	8	27	1	4	4	15	
	9	30	1	4	4	14	
34	1	2	5	3	12	27	
	2	13	4	3	10	26	
	3	14	4	3	9	25	
	4	15	3	3	7	23	
	5	16	3	3	6	23	
	6	23	3	3	5	22	
	7	28	3	3	5	21	
	8	29	2	3	4	21	
	9	30	2	3	2	20	
35	1	1	3	4	19	28	
	2	4	3	3	18	23	
	3	6	3	3	17	21	
	4	10	3	3	15	18	
	5	11	2	3	14	15	
	6	14	2	2	13	11	
	7	16	1	2	12	9	
	8	19	1	2	11	8	
	9	21	1	2	10	4	
36	1	1	2	5	14	25	
	2	2	1	4	14	24	
	3	5	1	4	12	22	
	4	6	1	3	11	18	
	5	10	1	2	11	17	
	6	11	1	2	10	12	
	7	12	1	2	10	11	
	8	18	1	1	9	6	
	9	19	1	1	8	4	
37	1	2	2	4	8	20	
	2	11	2	3	7	20	
	3	15	2	3	7	19	
	4	16	2	3	7	18	
	5	19	2	3	6	17	
	6	23	2	2	5	17	
	7	25	2	2	5	16	
	8	27	2	2	4	15	
	9	28	2	2	4	14	
38	1	3	3	4	15	18	
	2	6	2	4	13	17	
	3	7	2	3	13	17	
	4	9	2	3	13	16	
	5	12	1	2	12	16	
	6	13	1	2	11	16	
	7	23	1	1	11	15	
	8	28	1	1	10	15	
	9	30	1	1	10	14	
39	1	4	3	4	16	26	
	2	6	3	4	14	24	
	3	8	3	4	13	21	
	4	13	3	4	11	21	
	5	14	3	4	10	16	
	6	17	3	4	9	14	
	7	20	3	4	8	13	
	8	24	3	4	6	10	
	9	25	3	4	5	9	
40	1	6	2	5	28	22	
	2	7	2	4	28	21	
	3	12	2	3	28	21	
	4	14	2	3	28	20	
	5	15	2	2	28	21	
	6	16	2	2	27	20	
	7	24	2	2	27	19	
	8	28	2	1	27	20	
	9	29	2	1	27	19	
41	1	1	2	3	8	11	
	2	5	2	2	8	10	
	3	6	2	2	8	9	
	4	7	2	2	8	8	
	5	12	2	1	8	7	
	6	18	2	1	8	5	
	7	22	2	1	8	4	
	8	24	2	1	8	3	
	9	28	2	1	8	2	
42	1	3	5	2	14	13	
	2	8	4	1	11	12	
	3	9	4	1	11	11	
	4	10	4	1	8	11	
	5	11	4	1	7	10	
	6	14	4	1	6	9	
	7	21	4	1	6	8	
	8	26	4	1	4	7	
	9	30	4	1	3	7	
43	1	10	5	4	25	11	
	2	11	5	4	25	10	
	3	17	5	4	25	9	
	4	20	5	4	25	8	
	5	22	5	4	25	7	
	6	27	5	4	25	6	
	7	28	5	4	25	5	
	8	29	5	4	25	4	
	9	30	5	4	25	3	
44	1	2	3	5	9	22	
	2	10	2	4	8	20	
	3	12	2	4	8	19	
	4	18	2	4	7	18	
	5	19	1	3	7	17	
	6	21	1	3	6	15	
	7	22	1	2	6	14	
	8	27	1	2	5	11	
	9	29	1	2	5	10	
45	1	2	3	3	16	21	
	2	4	3	3	16	20	
	3	5	3	3	16	16	
	4	9	3	2	16	15	
	5	10	2	2	16	11	
	6	11	2	2	16	8	
	7	18	2	2	16	7	
	8	22	1	1	16	5	
	9	27	1	1	16	1	
46	1	1	4	1	30	29	
	2	6	3	1	30	25	
	3	7	3	1	30	22	
	4	21	3	1	30	21	
	5	24	3	1	30	17	
	6	25	2	1	30	15	
	7	26	2	1	30	14	
	8	27	2	1	30	10	
	9	28	2	1	30	7	
47	1	4	2	4	9	12	
	2	5	2	4	8	12	
	3	10	2	4	8	11	
	4	16	2	3	8	10	
	5	19	1	2	7	9	
	6	20	1	2	7	8	
	7	23	1	1	6	7	
	8	25	1	1	6	6	
	9	28	1	1	6	5	
48	1	6	4	2	26	21	
	2	10	4	2	24	19	
	3	11	4	2	24	15	
	4	13	3	2	22	14	
	5	19	3	2	22	13	
	6	22	3	2	21	11	
	7	24	2	2	19	9	
	8	25	2	2	18	7	
	9	28	2	2	18	4	
49	1	4	1	5	15	14	
	2	12	1	4	15	12	
	3	13	1	4	14	12	
	4	14	1	3	14	11	
	5	15	1	3	14	10	
	6	16	1	3	13	9	
	7	18	1	2	13	7	
	8	21	1	2	12	7	
	9	22	1	2	12	5	
50	1	3	4	5	11	14	
	2	4	4	4	10	13	
	3	5	4	4	10	12	
	4	14	4	3	10	12	
	5	16	3	3	9	10	
	6	17	3	3	8	9	
	7	23	3	2	8	9	
	8	24	3	2	7	7	
	9	28	3	2	7	6	
51	1	6	2	2	26	13	
	2	7	2	2	22	12	
	3	8	2	2	19	11	
	4	11	2	2	17	11	
	5	14	2	2	14	11	
	6	15	2	2	13	10	
	7	21	2	2	9	9	
	8	22	2	2	7	9	
	9	27	2	2	5	9	
52	1	0	0	0	0	0	
************************************************************************

 RESOURCE AVAILABILITIES 
	R 1	R 2	N 1	N 2
	29	32	811	835

************************************************************************
